43909.27,62.96,76.35
42242.53,65.45,79.37
44895.95,61.58,74.67
44935.1,61.52,74.61
52059.2,53.11,64.4
46958.5,58.87,71.4
51544.88,53.64,65.04
49257.36,56.13,68.06
53918.02,51.27,62.18
51787.74,53.38,64.74
43312.95,63.83,77.4
49420.5,55.94,67.84
45548.3,60.7,73.61
44860.06,61.63,74.73
50122.54,55.16,66.89
48131.0,57.44,69.66
40795.66,67.77,82.18
48777.04,56.68,68.73
45011.84,61.42,74.48
47161.07,58.62,71.09
